RT is False
Default write of storage_offers_DA.csv just to have a file (but constraint should be inactive)
Reading model...
...model read.
creating competitive generators file...
...competitive generators recorded.
Loading data...
.. day-ahead data with real-time VRE data read.
Compiling instance...
...instance created.
Creating Offer Mitigation (model will solve as dispatch if TRUE)...
NOTE: storage offers will not be mitigated
...storage offer mitigation file created
Converting model to MPEC...
...converted
NOTE: initial MIP solve with only storage competitive to get feasible solution
Solving...

Welcome to IBM(R) ILOG(R) CPLEX(R) Interactive Optimizer 12.9.0.0
  with Simplex, Mixed Integer & Barrier Optimizers
5725-A06 5725-A29 5724-Y48 5724-Y49 5724-Y54 5724-Y55 5655-Y21
Copyright IBM Corp. 1988, 2019.  All Rights Reserved.

Type 'help' for a list of available commands.
Type 'help' followed by a command name for more
information on commands.

CPLEX> Logfile 'cplex.log' closed.
Logfile 'C:\Users\llavin\Desktop\test826\logs\tmphi_y17cq.cplex.log' open.
CPLEX> New value for parallel optimization mode: -1
CPLEX> New value for emphasis for MIP optimization: 1
CPLEX> New value for mixed integer optimality gap tolerance: 0.01
CPLEX> New value for integrality tolerance: 1e-12
CPLEX> New value for deterministic time limit in ticks: 75000
CPLEX> Problem 'C:\Users\llavin\Desktop\test826\logs\tmpvzwl283r.pyomo.lp' read.
Read time = 0.22 sec. (13.92 ticks)
CPLEX> Problem name         : C:\Users\llavin\Desktop\test826\logs\tmpvzwl283r.pyomo.lp
Objective sense      : Maximize
Variables            :   53809  [Nneg: 1,  Box: 22004,  Free: 4464,
                                 Binary: 27340]
Objective nonzeros   :    9029
Linear constraints   :  123253  [Less: 41346,  Greater: 59096,  Equal: 22811]
  Nonzeros           :  293217
  RHS nonzeros       :   67491

Variables            : Min LB: -5000.000        Max UB: 1000000.       
Objective nonzeros   : Min   : 0.4083333        Max   : 2500.000       
Linear constraints   :
  Nonzeros           : Min   : 0.4083333        Max   : 1000000.       
  RHS nonzeros       : Min   : 0.4083333        Max   : 1000000.       
CPLEX> CPXPARAM_Parallel                                -1
CPXPARAM_Emphasis_MIP                            1
CPXPARAM_DetTimeLimit                            75000
CPXPARAM_MIP_Tolerances_MIPGap                   0.01
CPXPARAM_MIP_Tolerances_Integrality              9.9999999999999998e-13
Tried aggregator 4 times.
MIP Presolve eliminated 88657 rows and 18960 columns.
MIP Presolve added 3379 rows and 0 columns.
MIP Presolve modified 24795 coefficients.
Aggregator did 12986 substitutions.
Reduced MIP has 24989 rows, 21307 columns, and 71899 nonzeros.
Reduced MIP has 8423 binaries, 0 generals, 0 SOSs, and 0 indicators.
Presolve time = 0.33 sec. (192.31 ticks)
Probing fixed 402 vars, tightened 4747 bounds.
Probing time = 0.08 sec. (19.26 ticks)
Tried aggregator 2 times.
MIP Presolve eliminated 911 rows and 808 columns.
MIP Presolve modified 3035 coefficients.
Aggregator did 37 substitutions.
Reduced MIP has 24041 rows, 20462 columns, and 69158 nonzeros.
Reduced MIP has 8019 binaries, 0 generals, 0 SOSs, and 0 indicators.
Presolve time = 0.11 sec. (87.87 ticks)
Probing fixed 1 vars, tightened 246 bounds.
Probing time = 0.16 sec. (23.85 ticks)
Clique table members: 43588.
MIP emphasis: integer feasibility.
MIP search method: dynamic search.
Parallel mode: opportunistic, using up to 32 threads.
Root relaxation solution time = 0.41 sec. (608.19 ticks)

        Nodes                                         Cuts/
   Node  Left     Objective  IInf  Best Integer    Best Bound    ItCnt     Gap

      0     0     3620.9083   120                   3620.9083     5256         
*     0+    0                         3611.7653     3620.9083             0.25%

Root node processing (before b&c):
  Real time             =    2.48 sec. (1825.24 ticks)
Parallel b&c, 32 threads:
  Real time             =    0.00 sec. (0.00 ticks)
  Sync time (average)   =    0.00 sec.
  Wait time (average)   =    0.00 sec.
                          ------------
Total (root+branch&cut) =    2.48 sec. (1825.24 ticks)

Solution pool: 1 solution saved.

MIP - Integer optimal, tolerance (0.01/1e-06):  Objective =  3.6117653307e+03
Current MIP best bound =  3.6209082507e+03 (gap = 9.14292, 0.25%)
Solution time =    2.52 sec.  Iterations = 5256  Nodes = 0 (1)
Deterministic time = 1825.39 ticks  (725.80 ticks/sec)

CPLEX> Incumbent solution written to file 'C:\Users\llavin\Desktop\test826\logs\tmpet1wxfdc.cplex.sol'.
CPLEX> NOTE: no warmstart specified for MIP iteration, default behavior is true
NOTE: resolving with all competitive generators using storage-only solution to warmstart
Solving...

Welcome to IBM(R) ILOG(R) CPLEX(R) Interactive Optimizer 12.9.0.0
  with Simplex, Mixed Integer & Barrier Optimizers
5725-A06 5725-A29 5724-Y48 5724-Y49 5724-Y54 5724-Y55 5655-Y21
Copyright IBM Corp. 1988, 2019.  All Rights Reserved.

Type 'help' for a list of available commands.
Type 'help' followed by a command name for more
information on commands.

CPLEX> Logfile 'cplex.log' closed.
Logfile 'C:\Users\llavin\Desktop\test826\logs\tmp5c0e5176.cplex.log' open.
CPLEX> New value for parallel optimization mode: -1
CPLEX> New value for emphasis for MIP optimization: 1
CPLEX> New value for mixed integer optimality gap tolerance: 0.01
CPLEX> New value for integrality tolerance: 1e-12
CPLEX> New value for deterministic time limit in ticks: 75000
CPLEX> Problem 'C:\Users\llavin\Desktop\test826\logs\tmpvq46h428.pyomo.lp' read.
Read time = 0.23 sec. (13.94 ticks)
CPLEX> MIP start file 'C:\Users\llavin\Desktop\test826\logs\tmpd6iyv__0.cplex.mst' read.
CPLEX> Problem name         : C:\Users\llavin\Desktop\test826\logs\tmpvq46h428.pyomo.lp
Objective sense      : Maximize
Variables            :   54529  [Nneg: 1,  Box: 22724,  Free: 4464,
                                 Binary: 27340]
Objective nonzeros   :    9725
Linear constraints   :  123253  [Less: 41346,  Greater: 59096,  Equal: 22811]
  Nonzeros           :  293217
  RHS nonzeros       :   67491

Variables            : Min LB: -5000.000        Max UB: 1000000.       
Objective nonzeros   : Min   : 0.4083333        Max   : 2500.000       
Linear constraints   :
  Nonzeros           : Min   : 0.4083333        Max   : 1000000.       
  RHS nonzeros       : Min   : 0.4083333        Max   : 1000000.       
CPLEX> CPXPARAM_Parallel                                -1
CPXPARAM_Emphasis_MIP                            1
CPXPARAM_DetTimeLimit                            75000
CPXPARAM_MIP_Tolerances_MIPGap                   0.01
CPXPARAM_MIP_Tolerances_Integrality              9.9999999999999998e-13
Warning:  No solution found from 1 MIP starts.
Retaining values of one MIP start for possible repair.
Tried aggregator 4 times.
MIP Presolve eliminated 88657 rows and 19680 columns.
MIP Presolve added 3379 rows and 0 columns.
MIP Presolve modified 24795 coefficients.
Aggregator did 12986 substitutions.
Reduced MIP has 24989 rows, 21307 columns, and 71899 nonzeros.
Reduced MIP has 8423 binaries, 0 generals, 0 SOSs, and 0 indicators.
Presolve time = 0.33 sec. (192.72 ticks)
Probing fixed 402 vars, tightened 4747 bounds.
Probing time = 0.08 sec. (19.26 ticks)
Tried aggregator 2 times.
MIP Presolve eliminated 911 rows and 808 columns.
MIP Presolve modified 3035 coefficients.
Aggregator did 37 substitutions.
Reduced MIP has 24041 rows, 20462 columns, and 69158 nonzeros.
Reduced MIP has 8019 binaries, 0 generals, 0 SOSs, and 0 indicators.
Presolve time = 0.11 sec. (87.87 ticks)
Probing fixed 1 vars, tightened 246 bounds.
Probing time = 0.14 sec. (23.85 ticks)
Clique table members: 43588.
MIP emphasis: integer feasibility.
MIP search method: dynamic search.
Parallel mode: opportunistic, using up to 32 threads.
Root relaxation solution time = 0.49 sec. (660.28 ticks)

        Nodes                                         Cuts/
   Node  Left     Objective  IInf  Best Integer    Best Bound    ItCnt     Gap

      0     0   115388.6311   268                 115388.6311     5999         
      0     0   114427.1678   157                   Cuts: 162     6143         
      0     0   113989.3637   137                    Cuts: 69     6219         
      0     0   113897.0292   144                    Cuts: 30     6252         
Repair heuristic found nothing.
      0    26   113109.2989   133                     Cuts: 9     6670         
Elapsed time = 4.31 sec. (1861.43 ticks, tree = 0.05 MB, solutions = 0)
    638   537   112652.7860   116                 113502.5691    12827         
   1044   843   109329.5915   137                 113502.5691    17538         
   1605  1303    96133.7260   121                 113502.5691    28281         
   2194  1679     9888.4447    63                 113502.5691    46289         
   2779  2042    51752.1886    60                 113502.5691    55388         
   3350  2366   -43392.1618    60                 113502.5691    61053         
   3913  2770    infeasible                       113495.8660    70987         
   4495  3330    69786.2877   109                 113485.4525    91644         
   5034  3749    60488.5358    83                 113466.8024   103655         
   7330  5061    68312.2801    84                 113466.8024   151472         
Elapsed time = 21.13 sec. (4966.69 ticks, tree = 229.69 MB, solutions = 0)
*  7629  5524      integral     0    49262.9629   113466.8024   164339  130.33%
*  8095  5959      integral     0    49596.6020   113466.8024   176741  128.78%
  10747  5015   105964.5666   126    49596.6020   113466.8024   223410  128.78%
  10976  5857    infeasible          49596.6020   108167.2508   251557  118.09%
  12642   874   105669.7651   135    49596.6020   107533.0851   267242  116.82%
  14966  1543    56786.8437    80    49596.6020   107466.2114   277090  116.68%
  17713  2533   102523.6499   106    49596.6020   107466.2114   293547  116.68%
  20299  5264    58314.0588   102    49596.6020   107466.2114   351514  116.68%
  22807  7649    72990.9454   194    49596.6020   107466.2114   426552  116.68%
  25470  9010    92703.7686   120    49596.6020   107466.2114   477502  116.68%
Elapsed time = 65.69 sec. (14207.20 ticks, tree = 67.60 MB, solutions = 2)
  28187  9688    infeasible          49596.6020   107466.2114   503562  116.68%
  30484 10597    71110.3935   121    49596.6020   107466.2114   546835  116.68%
  31236 12121    65423.2205   113    49596.6020   107466.2114   606643  116.68%
  32126 11239    69326.9609   172    49596.6020   107466.2114   574094  116.68%
  34357 13014    57200.7719   109    49596.6020   107466.2114   648575  116.68%
  36937 12796    55077.8829   179    49596.6020   107466.2114   638634  116.68%
  39629 13381    54928.6173   191    49596.6020   107466.2114   664459  116.68%
  42429 15357    63961.6790   128    49596.6020   107466.2114   755354  116.68%
  45182 16495    infeasible          49596.6020   107466.2114   808731  116.68%
  47857 14642        cutoff          49596.6020   107466.2114   729148  116.68%
Elapsed time = 114.84 sec. (23749.77 ticks, tree = 112.03 MB, solutions = 2)
  50518 16630    57486.3910   132    49596.6020   107466.2114   813722  116.68%
  53212 17201    62309.1712   131    49596.6020   107458.9670   839145  116.67%
  55876 19733    79981.0767   130    49596.6020   107458.9670   943154  116.67%
  58605 19026    60896.3390   121    49596.6020   107458.9670   913567  116.67%
  61410 21579    53608.5502   105    49596.6020   107458.9670  1013797  116.67%
  64047 23591    54790.3514    71    49596.6020   107458.9670  1107621  116.67%
  66241 25935    90617.2493   125    49596.6020   107458.9670  1209138  116.67%
  68245 25972    infeasible          49596.6020   107458.9670  1210968  116.67%
  70196 25714    53470.6366   101    49596.6020   107458.9670  1195492  116.67%
  71964 26954    infeasible          49596.6020   107458.9670  1253527  116.67%
Elapsed time = 170.56 sec. (33291.46 ticks, tree = 213.71 MB, solutions = 2)
  73929 26997        cutoff          49596.6020   107458.9670  1254656  116.67%
  76061 27638    52936.4231   150    49596.6020   107458.9670  1282983  116.67%
  78508 28465        cutoff          49596.6020   107458.9670  1325012  116.67%
  81129 28919        cutoff          49596.6020   107458.9670  1346312  116.67%
  83818 30558    91041.2253   129    49596.6020   107458.9670  1424742  116.67%
  86447 29718    50507.7861   161    49596.6020   107458.9670  1381114  116.67%
  88890 32776    54326.6593   113    49596.6020   107458.9670  1522108  116.67%
  91179 35927    49605.0533   126    49596.6020   107408.5972  1718578  116.56%
  93284 32805    49771.4532    57    49596.6020   107408.5972  1528531  116.56%
  94994 33124    51132.4841   116    49596.6020   107408.5972  1544989  116.56%
Elapsed time = 212.00 sec. (42831.37 ticks, tree = 257.32 MB, solutions = 2)
  96485 35084        cutoff          49596.6020   107408.5972  1667967  116.56%
  97920 35664        cutoff          49596.6020   107408.5972  1704148  116.56%
  99736 35247    98735.4382   113    49596.6020   107408.5972  1680071  116.56%
 101965 35708        cutoff          49596.6020   107408.5972  1706585  116.56%
 104354 36118    90911.9018   125    49596.6020   107406.7254  1730703  116.56%
 106884 38389        cutoff          49596.6020   107406.7254  1850949  116.56%
 109456 37115    51117.1031   140    49596.6020   107406.7254  1779901  116.56%
 112111 37609    90653.5668   180    49596.6020   107406.7254  1808642  116.56%
 114903 41357    infeasible          49596.6020   107399.7998  2008355  116.55%
 117787 40596    56253.0389   204    49596.6020   107399.7998  1966684  116.55%
Elapsed time = 266.14 sec. (52373.81 ticks, tree = 317.04 MB, solutions = 2)
 120690 42080        cutoff          49596.6020   107333.0719  2043251  116.41%
 123624 43594    52165.9330   197    49596.6020   107207.8785  2144403  116.16%
 126512 42903    68602.5731   117    49596.6020   107207.8785  2104078  116.16%
 129311 45249    70197.5419   160    49596.6020   107193.0204  2246685  116.13%
 132099 46784        cutoff          49596.6020   107193.0204  2339428  116.13%
 134833 46926        cutoff          49596.6020   107193.0204  2347951  116.13%
 137494 45351    53700.9660   151    49596.6020   107193.0204  2251969  116.13%
 140153 46131    55007.2902   100    49596.6020   107193.0204  2294459  116.13%
 142717 46813    92195.0763   169    49596.6020   107193.0204  2341378  116.13%
 145223 50173    91010.8467   153    49596.6020   107193.0204  2525256  116.13%
Elapsed time = 320.30 sec. (61914.60 ticks, tree = 391.20 MB, solutions = 2)
 147730 49327    89076.4639   150    49596.6020   107193.0204  2472135  116.13%
 150338 51900        cutoff          49596.6020   107193.0204  2625289  116.13%
 153139 54016    70168.0151   158    49596.6020   107193.0204  2748193  116.13%
 155832 52928    69409.6454   105    49596.6020   107193.0204  2685539  116.13%
 158609 55524    54080.7168   176    49596.6020   107193.0204  2835502  116.13%
 161442 53936    80610.5405   169    49596.6020   107193.0204  2739779  116.13%
 164286 56046    54056.2927    81    49596.6020   107193.0204  2863660  116.13%
 167156 54241    50269.1332    79    49596.6020   107193.0204  2758416  116.13%
 169730 55927    66699.2515    83    49596.6020   107193.0204  2858302  116.13%
 172107 57533    55394.8267   143    49596.6020   107193.0204  2947365  116.13%
Elapsed time = 361.23 sec. (71454.19 ticks, tree = 448.34 MB, solutions = 2)
 174463 57710    54507.3733    55    49596.6020   107193.0204  2963411  116.13%
 176343 60119        cutoff          49596.6020   107193.0204  3118940  116.13%
 177856 59696    52570.0353   176    49596.6020   107193.0204  3096632  116.13%

Clique cuts applied:  23
Cover cuts applied:  15
Implied bound cuts applied:  83
Flow cuts applied:  232
Mixed integer rounding cuts applied:  38
Gomory fractional cuts applied:  43

Root node processing (before b&c):
  Real time             =    2.78 sec. (1818.49 ticks)
Parallel b&c, 32 threads:
  Real time             =  362.50 sec. (73233.69 ticks)
  Sync time (average)   =    1.93 sec.
  Wait time (average)   =    0.25 sec.
                          ------------
Total (root+branch&cut) =  365.28 sec. (75052.18 ticks)

Solution pool: 2 solutions saved.

MIP - Deterministic time limit exceeded, integer feasible:  Objective =  4.9596601983e+04
Current MIP best bound =  1.0430472007e+05 (gap = 54708.1, 110.31%)
Solution time =  365.30 sec.  Iterations = 3345332  Nodes = 178596 (63868)
Deterministic time = 75052.34 ticks  (205.46 ticks/sec)

CPLEX> Incumbent solution written to file 'C:\Users\llavin\Desktop\test826\logs\tmp_nltfa9k.cplex.sol'.
CPLEX> Exporting results... 
